results/x-long/X-n134-k13.vrp_seed-36.out
10916	1050
