results/x-long/X-n134-k13.vrp_seed-36.vrp.sol
Route #1: 132 109 17 19 130 80 115 125 128
Route #2: 127 48 64 117 49 69 1 92 31
Route #3: 118 91 51 16 14 60 95
Route #4: 47 9 2 39 73 18 96 59
Route #5: 129 116 89 113 25 105 41 34 58
Route #6: 3 72 86 33 124 12 133 82 76
Route #7: 56 123 110 54 32 62 10 103
Route #8: 29 61 71 120 111 36 43 79 112
Route #9: 119 57 104 99 46 21 45 106 85
Route #10: 100 122 11 114 131 101 52 40
Route #11: 13 63 15 81 84 107 70 4 27 22 55 126 20 67 44 8 30 68 7 121 5 97 6 108
Route #12: 78 87 74 26 35 50 38 83
Route #13: 24 37 88 102 94 93 42 65 28 75 98 23 77 53 66 90
Cost 10916.000000